&control
   calculation = 'relax'
   restart_mode='from_scratch',
   prefix='DPPA',
   tstress = .true.
   tprnfor = .true.
   pseudo_dir = '/expanse/lustre/projects/csd741/tpascal/nano110/qe/pseudo/',
   outdir='/expanse/lustre/scratch/lphillips1/temp_project/',
   verbosity = 'high'
/

&system
    ibrav           = 1
    a               = 15
    nat             = 71
    ntyp            = 3
    ecutwfc         = 30.0
    ecutrho         = 300.0

        occupations = 'smearing',
        smearing        =       'gaussian',
        degauss =       0.003
/

&electrons
    conv_thr        = 1.0d-8
    mixing_beta     = 0.3
/

&ions
        ion_dynamics = 'bfgs'
/

ATOMIC_SPECIES
    C          	12.0080         c_pbe_v1.2.uspp.F.UPF 
    O           15.999          o_pbe_v1.2.uspp.F.UPF
    H           1.00784         h_pbe_v1.4.uspp.F.UPF   

ATOMIC_POSITIONS {angstrom}
C        1.3221000000     -0.9526000000      0.1130000000                 
C        2.5983000000     -0.5633000000      0.2387000000                 
C        3.1041000000      0.4744000000      1.1803000000                 
C        2.2937000000      1.1350000000      2.0363000000                 
O        4.4446000000      0.7207000000      1.1315000000                 
C        5.1571000000      1.5911000000      1.9381000000                 
C        6.6703000000      1.5789000000      1.5854000000                 
C        7.2342000000      0.1350000000      1.6923000000                 
C        6.8975000000      2.1189000000      0.1458000000                 
C        7.4035000000      2.5088000000      2.5900000000                 
O        8.7631000000      2.5310000000      2.3409000000                 
C        9.6564000000      3.2556000000      3.0594000000                 
O        9.2867000000      3.9508000000      3.9968000000                 
C       11.0853000000      3.1895000000      2.6895000000                 
C       12.0327000000      3.8700000000      3.3434000000                 
O        6.2295000000      1.3100000000     -0.8022000000                 
C        6.7803000000      1.5089000000     -2.0885000000                 
C        5.9435000000      0.7639000000     -3.1643000000                 
C        5.8369000000     -0.7436000000     -2.8066000000                 
C        4.5205000000      1.3819000000     -3.2660000000                 
O        3.8045000000      1.2543000000     -2.0650000000                 
C        6.6556000000      0.9322000000     -4.5334000000                 
O        5.9599000000      0.2794000000     -5.5339000000                 
C        6.3443000000      0.2523000000     -6.8343000000                 
O        7.3627000000      0.8272000000     -7.1965000000                 
C        5.5107000000     -0.4849000000     -7.8061000000                 
C        5.8153000000     -0.5633000000     -9.1059000000                 
O        7.0921000000     -1.3151000000     -2.7174000000                 
C        7.3146000000     -2.6151000000     -2.4017000000                 
O        6.3791000000     -3.3724000000     -2.1784000000                 
C        8.7085000000     -3.0988000000     -2.3274000000                 
C        9.0188000000     -4.3625000000     -2.0193000000                 
O        7.0617000000     -0.3655000000      2.9688000000                 
C        7.4536000000     -1.6044000000      3.3576000000                 
O        7.9980000000     -2.3640000000      2.5666000000                 
C        7.2100000000     -2.0206000000      4.7540000000                 
C        7.5628000000     -3.2230000000      5.2210000000                 
H        1.0694000000     -1.7215000000     -0.6101000000                 
H        0.5144000000     -0.5371000000      0.7006000000                 
H        3.3299000000     -1.0462000000     -0.4015000000                 
H        1.2290000000      0.9535000000      2.0915000000                 
H        2.6760000000      1.8870000000      2.7167000000                 
H        5.0232000000      1.2799000000      2.9982000000                 
H        4.7577000000      2.6233000000      1.8218000000                 
H        8.3182000000      0.1320000000      1.4401000000                 
H        6.7161000000     -0.5314000000      0.9671000000                 
H        7.9982000000      2.1353000000     -0.0405000000                 
H        6.5087000000      3.1595000000      0.0739000000                 
H        7.2314000000      2.1537000000      3.6309000000                 
H        6.9983000000      3.5426000000      2.5085000000                 
H       11.3754000000      2.5617000000      1.8521000000                 
H       11.7920000000      4.5103000000      4.1865000000                 
H       13.0692000000      3.7877000000      3.0325000000                 
H        7.8190000000      1.1051000000     -2.1046000000                 
H        6.8074000000      2.5937000000     -2.3479000000                 
H        5.2416000000     -1.2781000000     -3.5801000000                 
H        5.3156000000     -0.8657000000     -1.8324000000                 
H        3.9339000000      0.8741000000     -4.0613000000                 
H        4.5853000000      2.4537000000     -3.5713000000                 
H        3.8503000000      2.1291000000     -1.5978000000                 
H        7.6874000000      0.5182000000     -4.4787000000                 
H        6.7328000000      2.0138000000     -4.7861000000                 
H        4.6146000000     -0.9827000000     -7.4476000000                 
H        6.7003000000     -0.0826000000     -9.5113000000                 
H        5.1700000000     -1.1176000000     -9.7797000000                 
H        9.5120000000     -2.3972000000     -2.5310000000                 
H        8.2507000000     -5.1000000000     -1.8074000000                 
H       10.0590000000     -4.6687000000     -1.9772000000                 
H        6.7244000000     -1.3198000000      5.4265000000                 
H        8.0505000000     -3.9573000000      4.5872000000                 
H        7.3617000000     -3.4812000000      6.2557000000 

K_POINTS (automatic)
1 1 1 0 0 0

