&control
   calculation = 'relax'
   restart_mode='from_scratch',
   prefix='Si',
   tstress = .true.
   tprnfor = .true.
   pseudo_dir = '/expanse/lustre/projects/csd741/tpascal/nano110/qe/pseudo/',
   outdir='/expanse/lustre/scratch/lphillips1/temp_project/qe/in_class/',
   verbosity = 'high'
/

&system
    ibrav           = 6
    celldm(1)       = 8.21772
    celldm(3) = 3
    nat             = 8
    ntyp            = 2
    ecutwfc         = 30.0
    ecutrho         = 300.0

        occupations = 'smearing',
        smearing        =       'gaussian',
        degauss =       0.003
/

&electrons
    conv_thr        = 1.0d-8
    mixing_beta     = 0.3
/

&ions
        ion_dynamics = 'bfgs'
/

ATOMIC_SPECIES
   Si   28.0855   si_pbe_v1.uspp.F.UPF
   C    12.0080   c_pde_v1.2.uspp.F.UPF

ATOMIC_POSITIONS {angstrom}
Si       0.0000000000      0.0000000000      0.0000000000
C        1.0870000000      1.0870000000      1.0870000000
Si       0.1257026236      2.2703040485      2.7690026346
Si       2.1740000000      0.0000000000      2.1740000000
Si       2.1740000000      2.1740000000      0.0000000000
C        3.2610000000      3.2610000000      1.0870000000
C        3.3184588915      0.9533039440      4.0238777831
C        1.3265677554      3.6019813185      3.9600762482

K_POINTS (automatic)
1 1 1 0 0 0

